Clp0006I 0  Obj 0 Primal inf 999.9999 (1000) Dual inf 6870320 (250000)
Clp0006I 200  Obj -4162302 Primal inf 304939 (1000)
Clp0006I 400  Obj -1427216 Primal inf 109687 (1000)
Clp0006I 600  Obj -27950 Primal inf 15685 (991)
Clp0006I 673  Obj -27950 Primal inf 16561 (992)
Clp0006I 752  Obj -27950 Primal inf 33673 (990)
Clp0006I 841  Obj -27950 Primal inf 47569 (990)
Clp0006I 932  Obj -27950 Primal inf 36248 (993)
Clp0006I 1032  Obj -27950 Primal inf 34001 (992)
Clp0006I 1142  Obj -27950 Primal inf 59698 (992)
Clp0006I 1244  Obj -27950 Primal inf 38565 (989)
Clp0006I 1349  Obj -27950 Primal inf 41224 (989)
Clp0006I 1463  Obj -27950 Primal inf 48484 (990)
Clp0006I 1582  Obj -27950 Primal inf 38321 (990)
Clp0006I 1697  Obj -27950 Primal inf 63701 (990)
Clp0006I 1803  Obj -27950 Primal inf 34395 (992)
Clp0006I 1905  Obj -27950 Primal inf 43331 (989)
Clp0006I 2009  Obj -27950 Primal inf 49453 (989)
Clp0006I 2107  Obj -27950 Primal inf 40047 (989)
Clp0006I 2208  Obj -27950 Primal inf 32695 (984)
Clp0006I 2311  Obj -27950 Primal inf 37683 (987)
Clp0006I 2425  Obj -27950 Primal inf 43256 (985)
Clp0006I 2526  Obj -27950 Primal inf 51180 (981)
Clp0006I 2636  Obj -27950 Primal inf 26750 (977)
Clp0006I 2756  Obj -27950 Primal inf 37707 (978)
Clp0006I 2855  Obj -27950 Primal inf 29133 (982)
Clp0006I 2960  Obj -27779 Primal inf 33861 (973)
Clp0006I 3067  Obj -27779 Primal inf 39395 (970)
Clp0006I 3173  Obj -27779 Primal inf 35289 (967)
Clp0006I 3283  Obj -27779 Primal inf 31479 (967)
Clp0006I 3384  Obj -27779 Primal inf 25248 (966)
Clp0006I 3484  Obj -27711 Primal inf 31805 (960)
Clp0006I 3593  Obj -27711 Primal inf 26661 (963)
Clp0006I 3698  Obj -27635 Primal inf 51720 (945)
Clp0006I 3785  Obj -26964 Primal inf 49382 (950)
Clp0006I 3889  Obj -26964 Primal inf 54294 (951)
Clp0006I 3998  Obj -26964 Primal inf 53218 (950)
Clp0006I 4099  Obj -26964 Primal inf 47996 (945)
Clp0006I 4205  Obj -26964 Primal inf 56617 (946)
Clp0006I 4305  Obj -26964 Primal inf 32290 (947)
Clp0006I 4409  Obj -26964 Primal inf 58661 (953)
Clp0006I 4514  Obj -26964 Primal inf 45632 (953)
Clp0006I 4623  Obj -26964 Primal inf 49004 (953)
Clp0006I 4718  Obj -26964 Primal inf 24389 (948)
Clp0006I 4822  Obj -26964 Primal inf 39352 (945)
Clp0006I 4922  Obj -26899 Primal inf 41854 (944)
Clp0006I 5018  Obj -26899 Primal inf 30947 (945)
Clp0006I 5119  Obj -26822 Primal inf 50100 (939)
Clp0006I 5208  Obj -25738 Primal inf 37877 (936)
Clp0006I 5316  Obj -25738 Primal inf 39947 (938)
Clp0006I 5400  Obj -25677 Primal inf 32926 (934)
Clp0006I 5495  Obj -25620 Primal inf 42011 (921)
Clp0006I 5582  Obj -25620 Primal inf 38395 (914)
Clp0006I 5669  Obj -25620 Primal inf 32195 (915)
Clp0006I 5760  Obj -25620 Primal inf 40637 (914)
Clp0006I 5853  Obj -25620 Primal inf 43448 (909)
Clp0006I 5952  Obj -25620 Primal inf 29114 (913)
Clp0006I 6046  Obj -25620 Primal inf 35456 (915)
Clp0006I 6138  Obj -25620 Primal inf 33571 (912)
Clp0006I 6236  Obj -25620 Primal inf 31770 (898)
Clp0006I 6341  Obj -25620 Primal inf 19807 (890)
Clp0006I 6446  Obj -25620 Primal inf 29691 (889)
Clp0006I 6542  Obj -25620 Primal inf 29451 (882)
Clp0006I 6637  Obj -25620 Primal inf 31078 (879)
Clp0006I 6727  Obj -25587 Primal inf 19165 (881)
Clp0006I 6828  Obj -25587 Primal inf 34178 (873)
Clp0006I 6920  Obj -25155 Primal inf 24858 (862)
Clp0006I 7017  Obj -25155 Primal inf 22193 (860)
Clp0006I 7114  Obj -25155 Primal inf 28043 (853)
Clp0006I 7211  Obj -25155 Primal inf 29883 (855)
Clp0006I 7296  Obj -25155 Primal inf 21111 (843)
Clp0006I 7417  Obj -25155 Primal inf 25598 (844)
Clp0006I 7509  Obj -25155 Primal inf 31176 (840)
Clp0006I 7601  Obj -25155 Primal inf 18062 (842)
Clp0006I 7713  Obj -25155 Primal inf 24613 (835)
Clp0006I 7821  Obj -25155 Primal inf 26421 (836)
Clp0006I 7921  Obj -25155 Primal inf 28457 (826)
Clp0006I 8023  Obj -25155 Primal inf 25584 (820)
Clp0006I 8114  Obj -25155 Primal inf 19865 (814)
Clp0006I 8232  Obj -25155 Primal inf 21085 (814)
Clp0006I 8335  Obj -25155 Primal inf 19646 (814)
Clp0006I 8437  Obj -25131 Primal inf 21612 (805)
Clp0006I 8524  Obj -25109 Primal inf 9809.9999 (795)
Clp0006I 8647  Obj -25000 Primal inf 6856.9999 (771)
Clp0006I 8767  Obj -25000 Primal inf 6136.9999 (752)
Clp0006I 8866  Obj -25000 Primal inf 6981.9999 (739)
Clp0006I 8960  Obj -25000 Primal inf 6754.9999 (729)
Clp0006I 9043  Obj -25000 Primal inf 3450.9999 (717)
Clp0006I 9174  Obj -25000 Primal inf 3836.9999 (725)
Clp0006I 9303  Obj -25000 Primal inf 3288.9999 (694)
Clp0006I 9437  Obj -25000 Primal inf 2973.9999 (694)
Clp0006I 9548  Obj -25000 Primal inf 3945.9999 (664)
Clp0006I 9671  Obj -25000 Primal inf 6005.9999 (666)
Clp0006I 9760  Obj -25000 Primal inf 5497.9999 (650)
Clp0006I 9850  Obj -25000 Primal inf 4065.9999 (639)
Clp0006I 9933  Obj -25000 Primal inf 4034.9999 (634)
Clp0006I 10022  Obj -25000 Primal inf 5444.9999 (621)
Clp0006I 10099  Obj -25000 Primal inf 3214.9999 (610)
Clp0006I 10203  Obj -25000 Primal inf 2212.9999 (613)
Clp0006I 10335  Obj -25000 Primal inf 3377.9999 (607)
Clp0006I 10425  Obj -25000 Primal inf 3936.9999 (600)
Clp0006I 10515  Obj -25000 Primal inf 3628.9999 (593)
Clp0006I 10625  Obj -25000 Primal inf 2648.9999 (587)
Clp0006I 10723  Obj -25000 Primal inf 3305.9999 (597)
Clp0006I 10819  Obj -25000 Primal inf 3143.9999 (576)
Clp0006I 10910  Obj -25000 Primal inf 3185.9999 (575)
Clp0006I 11015  Obj -25000 Primal inf 2970.9999 (560)
Clp0006I 11121  Obj -25000 Primal inf 1598.9999 (539)
Clp0006I 11249  Obj -25000 Primal inf 1091.9999 (504)
Clp0006I 11364  Obj -25000 Primal inf 1282 (487)
Clp0006I 11463  Obj -25000 Primal inf 1192 (461)
Clp0006I 11574  Obj -25000 Primal inf 1136 (466)
Clp0006I 11665  Obj -25000 Primal inf 1287 (452)
Clp0006I 11771  Obj -25000 Primal inf 758.99996 (413)
Clp0006I 11885  Obj -25000 Primal inf 643.99997 (334)
Clp0006I 11989  Obj -25000 Primal inf 551.99997 (262)
Clp0006I 12095  Obj -25000 Primal inf 326.99998 (189)
Clp0006I 12203  Obj -25000 Primal inf 656.99998 (195)
Clp0006I 12311  Obj -25000 Primal inf 182.99999 (136)
Clp0006I 12420  Obj -25000 Primal inf 399.99999 (102)
Clp0006I 12511  Obj -25000 Primal inf 152.99999 (51)
Clp0006I 12612  Obj -25000 Primal inf 68.999996 (38)
Clp0006I 12701  Obj -25000 Primal inf 50.999996 (36)
Clp0006I 12778  Obj -25000
Clp0000I Optimal - objective value -25000
Clp0000I Optimal - objective value -25000
Node 0 depth 0 unsatisfied 0 sum 0 obj -25000 guess -25000 branching on -1
Clp0000I Optimal - objective value -25000
Cbc0004I Integer solution of -25000 found after 0 iterations and 0 nodes (28.55 seconds)
Cbc0001I Search completed - best objective -25000, took 0 iterations and 0 nodes (28.63 seconds)
Cbc0035I Maximum depth 0, 0 variables fixed on reduced cost
Clp0000I Optimal - objective value -25000
Clp0000I Optimal - objective value -25000
x_90 = 1
x_878 = 1
x_1445 = 1
x_1886 = 1
x_2289 = 1
x_2754 = 1
x_3081 = 1
x_3826 = 1
x_4004 = 1
x_4805 = 1
x_5216 = 1
x_5686 = 1
x_6212 = 1
x_6688 = 1
x_7224 = 1
x_7855 = 1
x_8436 = 1
x_8848 = 1
x_9205 = 1
x_9693 = 1
x_10134 = 1
x_10781 = 1
x_11063 = 1
x_11876 = 1
x_12058 = 1
x_12633 = 1
x_13143 = 1
x_13820 = 1
x_14432 = 1
x_14622 = 1
x_15209 = 1
x_15708 = 1
x_16166 = 1
x_16596 = 1
x_17282 = 1
x_17508 = 1
x_18206 = 1
x_18778 = 1
x_19295 = 1
x_19561 = 1
x_20365 = 1
x_20728 = 1
x_21138 = 1
x_21850 = 1
x_22125 = 1
x_22982 = 1
x_23335 = 1
x_23747 = 1
x_24014 = 1
x_24648 = 1
x_25483 = 1
x_25523 = 1
x_26129 = 1
x_26606 = 1
x_27259 = 1
x_27763 = 1
x_28157 = 1
x_28544 = 1
x_29131 = 1
x_29739 = 1
x_30325 = 1
x_30624 = 1
x_31167 = 1
x_31676 = 1
x_32307 = 1
x_32755 = 1
x_33085 = 1
x_33895 = 1
x_34357 = 1
x_34793 = 1
x_35240 = 1
x_35577 = 1
x_36121 = 1
x_36917 = 1
x_37226 = 1
x_37794 = 1
x_38130 = 1
x_38521 = 1
x_39304 = 1
x_39524 = 1
x_40019 = 1
x_40786 = 1
x_41322 = 1
x_41719 = 1
x_42031 = 1
x_42652 = 1
x_43013 = 1
x_43543 = 1
x_44272 = 1
x_44620 = 1
x_45104 = 1
x_45512 = 1
x_46184 = 1
x_46642 = 1
x_47261 = 1
x_47662 = 1
x_48217 = 1
x_48921 = 1
x_49252 = 1
x_49597 = 1
x_50114 = 1
x_50885 = 1
x_51370 = 1
x_51862 = 1
x_52149 = 1
x_52942 = 1
x_53241 = 1
x_53732 = 1
x_54177 = 1
x_54996 = 1
x_55117 = 1
x_55565 = 1
x_56223 = 1
x_56743 = 1
x_57337 = 1
x_57783 = 1
x_58267 = 1
x_58578 = 1
x_59270 = 1
x_59836 = 1
x_60045 = 1
x_60609 = 1
x_61076 = 1
x_61744 = 1
x_62233 = 1
x_62644 = 1
x_63187 = 1
x_63612 = 1
x_64123 = 1
x_64664 = 1
x_65366 = 1
x_65700 = 1
x_66178 = 1
x_66529 = 1
x_67302 = 1
x_67516 = 1
x_68088 = 1
x_68632 = 1
x_69422 = 1
x_69831 = 1
x_70277 = 1
x_70605 = 1
x_71323 = 1
x_71635 = 1
x_72110 = 1
x_72599 = 1
x_73251 = 1
x_73699 = 1
x_74154 = 1
x_74742 = 1
x_75094 = 1
x_75613 = 1
x_76185 = 1
x_76842 = 1
x_77068 = 1
x_77958 = 1
x_78146 = 1
x_78801 = 1
x_79137 = 1
x_79771 = 1
x_80248 = 1
x_80760 = 1
x_81153 = 1
x_81675 = 1
x_82318 = 1
x_82702 = 1
x_83399 = 1
x_83540 = 1
x_84210 = 1
x_84785 = 1
x_85352 = 1
x_85811 = 1
x_86287 = 1
x_86562 = 1
x_87372 = 1
x_87816 = 1
x_88275 = 1
x_88598 = 1
x_89298 = 1
x_89912 = 1
x_90039 = 1
x_90745 = 1
x_91314 = 1
x_91780 = 1
x_92364 = 1
x_92877 = 1
x_93074 = 1
x_93645 = 1
x_94414 = 1
x_94698 = 1
x_95171 = 1
x_95628 = 1
x_96363 = 1
x_96669 = 1
x_97197 = 1
x_97913 = 1
x_98051 = 1
x_98579 = 1
x_99108 = 1
x_99602 = 1
x_100235 = 1
x_100557 = 1
x_101253 = 1
x_101593 = 1
x_102174 = 1
x_102967 = 1
x_103151 = 1
x_103683 = 1
x_104002 = 1
x_104549 = 1
x_105101 = 1
x_105815 = 1
x_106064 = 1
x_106730 = 1
x_107107 = 1
x_107658 = 1
x_108291 = 1
x_108725 = 1
x_109103 = 1
x_109824 = 1
x_110497 = 1
x_110659 = 1
x_111018 = 1
x_111689 = 1
x_112493 = 1
x_112750 = 1
x_113264 = 1
x_113715 = 1
x_114354 = 1
x_114704 = 1
x_115086 = 1
x_115501 = 1
x_116249 = 1
x_116573 = 1
x_117028 = 1
x_117647 = 1
x_118207 = 1
x_118908 = 1
x_119269 = 1
x_119569 = 1
x_120317 = 1
x_120809 = 1
x_121048 = 1
x_121517 = 1
x_122032 = 1
x_122918 = 1
x_123059 = 1
x_123639 = 1
x_124227 = 1
x_124656 = 1
x_125310 = 1
x_125663 = 1
x_126192 = 1
x_126892 = 1
x_127030 = 1
x_127650 = 1
x_128297 = 1
x_128875 = 1
x_129358 = 1
x_129511 = 1
x_130026 = 1
x_130556 = 1
x_131292 = 1
x_131851 = 1
x_132191 = 1
x_132589 = 1
x_133037 = 1
x_133714 = 1
x_134303 = 1
x_134542 = 1
x_135055 = 1
x_135928 = 1
x_136229 = 1
x_136904 = 1
x_137165 = 1
x_137571 = 1
x_138218 = 1
x_138618 = 1
x_139390 = 1
x_139845 = 1
x_140180 = 1
x_140670 = 1
x_141050 = 1
x_141611 = 1
x_142300 = 1
x_142583 = 1
x_143266 = 1
x_143560 = 1
x_144010 = 1
x_144681 = 1
x_145116 = 1
x_145694 = 1
x_146410 = 1
x_146553 = 1
x_147468 = 1
x_147873 = 1
x_148003 = 1
x_148934 = 1
x_149321 = 1
x_149869 = 1
x_150288 = 1
x_150937 = 1
x_151306 = 1
x_151880 = 1
x_152173 = 1
x_152773 = 1
x_153405 = 1
x_153734 = 1
x_154047 = 1
x_154615 = 1
x_155296 = 1
x_155840 = 1
x_156211 = 1
x_156505 = 1
x_157262 = 1
x_157660 = 1
x_158196 = 1
x_158587 = 1
x_159015 = 1
x_159567 = 1
x_160033 = 1
x_160580 = 1
x_161127 = 1
x_161584 = 1
x_162443 = 1
x_162776 = 1
x_163474 = 1
x_163507 = 1
x_164006 = 1
x_164902 = 1
x_165343 = 1
x_165946 = 1
x_166136 = 1
x_166920 = 1
x_167201 = 1
x_167595 = 1
x_168190 = 1
x_168713 = 1
x_169353 = 1
x_169844 = 1
x_170100 = 1
x_170525 = 1
x_171349 = 1
x_171881 = 1
x_172407 = 1
x_172924 = 1
x_173082 = 1
x_173882 = 1
x_174256 = 1
x_174893 = 1
x_175172 = 1
x_175679 = 1
x_176222 = 1
x_176546 = 1
x_177409 = 1
x_177830 = 1
x_178423 = 1
x_178987 = 1
x_179203 = 1
x_179940 = 1
x_180231 = 1
x_180655 = 1
x_181328 = 1
x_181536 = 1
x_182027 = 1
x_182758 = 1
x_183406 = 1
x_183933 = 1
x_184066 = 1
x_184668 = 1
x_185374 = 1
x_185990 = 1
x_186092 = 1
x_186916 = 1
x_187334 = 1
x_187552 = 1
x_188070 = 1
x_188535 = 1
x_189438 = 1
x_189980 = 1
x_190257 = 1
x_190784 = 1
x_191339 = 1
x_191847 = 1
x_192429 = 1
x_192522 = 1
x_193299 = 1
x_193619 = 1
x_194091 = 1
x_194534 = 1
x_195038 = 1
x_195829 = 1
x_196475 = 1
x_196985 = 1
x_197477 = 1
x_197891 = 1
x_198459 = 1
x_198988 = 1
x_199471 = 1
x_199790 = 1
x_200484 = 1
x_200856 = 1
x_201425 = 1
x_201950 = 1
x_202397 = 1
x_202819 = 1
x_203182 = 1
x_203935 = 1
x_204140 = 1
x_204765 = 1
x_205389 = 1
x_205661 = 1
x_206439 = 1
x_206641 = 1
x_207481 = 1
x_207509 = 1
x_208419 = 1
x_208898 = 1
x_209332 = 1
x_209736 = 1
x_210195 = 1
x_210721 = 1
x_211072 = 1
x_211868 = 1
x_212394 = 1
x_212994 = 1
x_213126 = 1
x_213500 = 1
x_214371 = 1
x_214554 = 1
x_215499 = 1
x_215991 = 1
x_216498 = 1
x_216992 = 1
x_217367 = 1
x_217941 = 1
x_218415 = 1
x_218827 = 1
x_219457 = 1
x_219930 = 1
x_220274 = 1
x_220812 = 1
x_221470 = 1
x_221838 = 1
x_222041 = 1
x_222900 = 1
x_223401 = 1
x_223859 = 1
x_224448 = 1
x_224779 = 1
x_225478 = 1
x_225833 = 1
x_226426 = 1
x_226952 = 1
x_227460 = 1
x_227951 = 1
x_228403 = 1
x_228846 = 1
x_229461 = 1
x_229989 = 1
x_230308 = 1
x_230887 = 1
x_231383 = 1
x_231884 = 1
x_232075 = 1
x_232979 = 1
x_233341 = 1
x_233955 = 1
x_234469 = 1
x_234861 = 1
x_235396 = 1
x_235944 = 1
x_236449 = 1
x_236966 = 1
x_237020 = 1
x_237953 = 1
x_238360 = 1
x_238964 = 1
x_239447 = 1
x_239962 = 1
x_240427 = 1
x_240954 = 1
x_241472 = 1
x_241995 = 1
x_242220 = 1
x_242888 = 1
x_243238 = 1
x_243986 = 1
x_244411 = 1
x_244746 = 1
x_245379 = 1
x_245973 = 1
x_246456 = 1
x_246965 = 1
x_247268 = 1
x_247737 = 1
x_248313 = 1
x_248931 = 1
x_249463 = 1
x_249976 = 1
real 0m29,977s user 0m29,742s sys 0m0,200s
